certificates/rado_a12_c152_N31.drat
13 -31 0
-31 0
11 0
-13 0
9 0
17 0
27 0
-29 0
-12 0
-14 0
-7 0
21 0
0
